\ENCODING=ISO-8859-1
\Problem name: IloCplex

Minimize
 obj1: 696.56299069072 x_0_0 + 696.56299069072 x_0_1 + 696.56299069072 x_0_2
       + 696.56299069072 x_0_3 + 696.56299069072 x_0_4 + 696.56299069072 x_0_5
       + 696.56299069072 x_0_6 + 696.56299069072 x_0_7 + 696.56299069072 x_0_8
       + 696.56299069072 x_0_9 + 696.56299069072 x_0_10
       + 530.561820031696 x_1_0 + 530.561820031696 x_1_1
       + 530.561820031696 x_1_2 + 530.561820031696 x_1_3
       + 530.561820031696 x_1_4 + 530.561820031696 x_1_5
       + 530.561820031696 x_1_6 + 530.561820031696 x_1_7
       + 530.561820031696 x_1_8 + 530.561820031696 x_1_9
       + 530.561820031696 x_1_10 + 761.214104953558 x_2_0
       + 761.214104953558 x_2_1 + 761.214104953558 x_2_2
       + 761.214104953558 x_2_3 + 761.214104953558 x_2_4
       + 761.214104953558 x_2_5 + 761.214104953558 x_2_6
       + 761.214104953558 x_2_7 + 761.214104953558 x_2_8
       + 761.214104953558 x_2_9 + 761.214104953558 x_2_10
       + 718.602896916503 x_3_0 + 718.602896916503 x_3_1
       + 718.602896916503 x_3_2 + 718.602896916503 x_3_3
       + 718.602896916503 x_3_4 + 718.602896916503 x_3_5
       + 718.602896916503 x_3_6 + 718.602896916503 x_3_7
       + 718.602896916503 x_3_8 + 718.602896916503 x_3_9
       + 718.602896916503 x_3_10 + 546.761373910045 x_4_0
       + 546.761373910045 x_4_1 + 546.761373910045 x_4_2
       + 546.761373910045 x_4_3 + 546.761373910045 x_4_4
       + 546.761373910045 x_4_5 + 546.761373910045 x_4_6
       + 546.761373910045 x_4_7 + 546.761373910045 x_4_8
       + 546.761373910045 x_4_9 + 546.761373910045 x_4_10
       + 350.194390462085 x_5_0 + 350.194390462085 x_5_1
       + 350.194390462085 x_5_2 + 350.194390462085 x_5_3
       + 350.194390462085 x_5_4 + 350.194390462085 x_5_5
       + 350.194390462085 x_5_6 + 350.194390462085 x_5_7
       + 350.194390462085 x_5_8 + 350.194390462085 x_5_9
       + 350.194390462085 x_5_10 + 784.120172195847 x_6_0
       + 784.120172195847 x_6_1 + 784.120172195847 x_6_2
       + 784.120172195847 x_6_3 + 784.120172195847 x_6_4
       + 784.120172195847 x_6_5 + 784.120172195847 x_6_6
       + 784.120172195847 x_6_7 + 784.120172195847 x_6_8
       + 784.120172195847 x_6_9 + 784.120172195847 x_6_10
       + 300.704407177327 x_7_0 + 300.704407177327 x_7_1
       + 300.704407177327 x_7_2 + 300.704407177327 x_7_3
       + 300.704407177327 x_7_4 + 300.704407177327 x_7_5
       + 300.704407177327 x_7_6 + 300.704407177327 x_7_7
       + 300.704407177327 x_7_8 + 300.704407177327 x_7_9
       + 300.704407177327 x_7_10 + 409.138219725604 x_8_0
       + 409.138219725604 x_8_1 + 409.138219725604 x_8_2
       + 409.138219725604 x_8_3 + 409.138219725604 x_8_4
       + 409.138219725604 x_8_5 + 409.138219725604 x_8_6
       + 409.138219725604 x_8_7 + 409.138219725604 x_8_8
       + 409.138219725604 x_8_9 + 409.138219725604 x_8_10
       + 1054.67799778527 x_9_0 + 1054.67799778527 x_9_1
       + 1054.67799778527 x_9_2 + 1054.67799778527 x_9_3
       + 1054.67799778527 x_9_4 + 1054.67799778527 x_9_5
       + 1054.67799778527 x_9_6 + 1054.67799778527 x_9_7
       + 1054.67799778527 x_9_8 + 1054.67799778527 x_9_9
       + 1054.67799778527 x_9_10
Subject To
 capacityRegion0: 200 x_0_0 + 200 x_0_1 + 200 x_0_2 + 200 x_0_3 + 200 x_0_4
                  + 200 x_0_5 + 200 x_0_6 + 200 x_0_7 + 200 x_0_8 + 200 x_0_9
                  + 200 x_0_10 >= 120
 capacityRegion1: 200 x_1_0 + 200 x_1_1 + 200 x_1_2 + 200 x_1_3 + 200 x_1_4
                  + 200 x_1_5 + 200 x_1_6 + 200 x_1_7 + 200 x_1_8 + 200 x_1_9
                  + 200 x_1_10 >= 400
 capacityRegion2: 200 x_2_0 + 200 x_2_1 + 200 x_2_2 + 200 x_2_3 + 200 x_2_4
                  + 200 x_2_5 + 200 x_2_6 + 200 x_2_7 + 200 x_2_8 + 200 x_2_9
                  + 200 x_2_10 >= 190
 capacityRegion3: 200 x_3_0 + 200 x_3_1 + 200 x_3_2 + 200 x_3_3 + 200 x_3_4
                  + 200 x_3_5 + 200 x_3_6 + 200 x_3_7 + 200 x_3_8 + 200 x_3_9
                  + 200 x_3_10 >= 200
 capacityRegion4: 200 x_4_0 + 200 x_4_1 + 200 x_4_2 + 200 x_4_3 + 200 x_4_4
                  + 200 x_4_5 + 200 x_4_6 + 200 x_4_7 + 200 x_4_8 + 200 x_4_9
                  + 200 x_4_10 >= 170
 capacityRegion5: 200 x_5_0 + 200 x_5_1 + 200 x_5_2 + 200 x_5_3 + 200 x_5_4
                  + 200 x_5_5 + 200 x_5_6 + 200 x_5_7 + 200 x_5_8 + 200 x_5_9
                  + 200 x_5_10 >= 180
 capacityRegion6: 200 x_6_0 + 200 x_6_1 + 200 x_6_2 + 200 x_6_3 + 200 x_6_4
                  + 200 x_6_5 + 200 x_6_6 + 200 x_6_7 + 200 x_6_8 + 200 x_6_9
                  + 200 x_6_10 >= 70
 capacityRegion7: 200 x_7_0 + 200 x_7_1 + 200 x_7_2 + 200 x_7_3 + 200 x_7_4
                  + 200 x_7_5 + 200 x_7_6 + 200 x_7_7 + 200 x_7_8 + 200 x_7_9
                  + 200 x_7_10 >= 170
 capacityRegion8: 200 x_8_0 + 200 x_8_1 + 200 x_8_2 + 200 x_8_3 + 200 x_8_4
                  + 200 x_8_5 + 200 x_8_6 + 200 x_8_7 + 200 x_8_8 + 200 x_8_9
                  + 200 x_8_10 >= 160
 capacityRegion9: 200 x_9_0 + 200 x_9_1 + 200 x_9_2 + 200 x_9_3 + 200 x_9_4
                  + 200 x_9_5 + 200 x_9_6 + 200 x_9_7 + 200 x_9_8 + 200 x_9_9
                  + 200 x_9_10 >= 150
 vehicleRegion0:  x_0_0 + x_1_0 + x_2_0 + x_3_0 + x_4_0 + x_5_0 + x_6_0 + x_7_0
                  + x_8_0 + x_9_0 <= 1
 vehicleRegion1:  x_0_1 + x_1_1 + x_2_1 + x_3_1 + x_4_1 + x_5_1 + x_6_1 + x_7_1
                  + x_8_1 + x_9_1 <= 1
 vehicleRegion2:  x_0_2 + x_1_2 + x_2_2 + x_3_2 + x_4_2 + x_5_2 + x_6_2 + x_7_2
                  + x_8_2 + x_9_2 <= 1
 vehicleRegion3:  x_0_3 + x_1_3 + x_2_3 + x_3_3 + x_4_3 + x_5_3 + x_6_3 + x_7_3
                  + x_8_3 + x_9_3 <= 1
 vehicleRegion4:  x_0_4 + x_1_4 + x_2_4 + x_3_4 + x_4_4 + x_5_4 + x_6_4 + x_7_4
                  + x_8_4 + x_9_4 <= 1
 vehicleRegion5:  x_0_5 + x_1_5 + x_2_5 + x_3_5 + x_4_5 + x_5_5 + x_6_5 + x_7_5
                  + x_8_5 + x_9_5 <= 1
 vehicleRegion6:  x_0_6 + x_1_6 + x_2_6 + x_3_6 + x_4_6 + x_5_6 + x_6_6 + x_7_6
                  + x_8_6 + x_9_6 <= 1
 vehicleRegion7:  x_0_7 + x_1_7 + x_2_7 + x_3_7 + x_4_7 + x_5_7 + x_6_7 + x_7_7
                  + x_8_7 + x_9_7 <= 1
 vehicleRegion8:  x_0_8 + x_1_8 + x_2_8 + x_3_8 + x_4_8 + x_5_8 + x_6_8 + x_7_8
                  + x_8_8 + x_9_8 <= 1
 vehicleRegion9:  x_0_9 + x_1_9 + x_2_9 + x_3_9 + x_4_9 + x_5_9 + x_6_9 + x_7_9
                  + x_8_9 + x_9_9 <= 1
 vehicleRegion10: x_0_10 + x_1_10 + x_2_10 + x_3_10 + x_4_10 + x_5_10 + x_6_10
                  + x_7_10 + x_8_10 + x_9_10 <= 1
Bounds
 0 <= x_0_0 <= 1
 0 <= x_0_1 <= 1
 0 <= x_0_2 <= 1
 0 <= x_0_3 <= 1
 0 <= x_0_4 <= 1
 0 <= x_0_5 <= 1
 0 <= x_0_6 <= 1
 0 <= x_0_7 <= 1
 0 <= x_0_8 <= 1
 0 <= x_0_9 <= 1
 0 <= x_0_10 <= 1
 0 <= x_1_0 <= 1
 0 <= x_1_1 <= 1
 0 <= x_1_2 <= 1
 0 <= x_1_3 <= 1
 0 <= x_1_4 <= 1
 0 <= x_1_5 <= 1
 0 <= x_1_6 <= 1
 0 <= x_1_7 <= 1
 0 <= x_1_8 <= 1
 0 <= x_1_9 <= 1
 0 <= x_1_10 <= 1
 0 <= x_2_0 <= 1
 0 <= x_2_1 <= 1
 0 <= x_2_2 <= 1
 0 <= x_2_3 <= 1
 0 <= x_2_4 <= 1
 0 <= x_2_5 <= 1
 0 <= x_2_6 <= 1
 0 <= x_2_7 <= 1
 0 <= x_2_8 <= 1
 0 <= x_2_9 <= 1
 0 <= x_2_10 <= 1
 0 <= x_3_0 <= 1
 0 <= x_3_1 <= 1
 0 <= x_3_2 <= 1
 0 <= x_3_3 <= 1
 0 <= x_3_4 <= 1
 0 <= x_3_5 <= 1
 0 <= x_3_6 <= 1
 0 <= x_3_7 <= 1
 0 <= x_3_8 <= 1
 0 <= x_3_9 <= 1
 0 <= x_3_10 <= 1
 0 <= x_4_0 <= 1
 0 <= x_4_1 <= 1
 0 <= x_4_2 <= 1
 0 <= x_4_3 <= 1
 0 <= x_4_4 <= 1
 0 <= x_4_5 <= 1
 0 <= x_4_6 <= 1
 0 <= x_4_7 <= 1
 0 <= x_4_8 <= 1
 0 <= x_4_9 <= 1
 0 <= x_4_10 <= 1
 0 <= x_5_0 <= 1
 0 <= x_5_1 <= 1
 0 <= x_5_2 <= 1
 0 <= x_5_3 <= 1
 0 <= x_5_4 <= 1
 0 <= x_5_5 <= 1
 0 <= x_5_6 <= 1
 0 <= x_5_7 <= 1
 0 <= x_5_8 <= 1
 0 <= x_5_9 <= 1
 0 <= x_5_10 <= 1
 0 <= x_6_0 <= 1
 0 <= x_6_1 <= 1
 0 <= x_6_2 <= 1
 0 <= x_6_3 <= 1
 0 <= x_6_4 <= 1
 0 <= x_6_5 <= 1
 0 <= x_6_6 <= 1
 0 <= x_6_7 <= 1
 0 <= x_6_8 <= 1
 0 <= x_6_9 <= 1
 0 <= x_6_10 <= 1
 0 <= x_7_0 <= 1
 0 <= x_7_1 <= 1
 0 <= x_7_2 <= 1
 0 <= x_7_3 <= 1
 0 <= x_7_4 <= 1
 0 <= x_7_5 <= 1
 0 <= x_7_6 <= 1
 0 <= x_7_7 <= 1
 0 <= x_7_8 <= 1
 0 <= x_7_9 <= 1
 0 <= x_7_10 <= 1
 0 <= x_8_0 <= 1
 0 <= x_8_1 <= 1
 0 <= x_8_2 <= 1
 0 <= x_8_3 <= 1
 0 <= x_8_4 <= 1
 0 <= x_8_5 <= 1
 0 <= x_8_6 <= 1
 0 <= x_8_7 <= 1
 0 <= x_8_8 <= 1
 0 <= x_8_9 <= 1
 0 <= x_8_10 <= 1
 0 <= x_9_0 <= 1
 0 <= x_9_1 <= 1
 0 <= x_9_2 <= 1
 0 <= x_9_3 <= 1
 0 <= x_9_4 <= 1
 0 <= x_9_5 <= 1
 0 <= x_9_6 <= 1
 0 <= x_9_7 <= 1
 0 <= x_9_8 <= 1
 0 <= x_9_9 <= 1
 0 <= x_9_10 <= 1
Binaries
 x_0_0  x_0_1  x_0_2  x_0_3  x_0_4  x_0_5  x_0_6  x_0_7  x_0_8  x_0_9  x_0_10 
 x_1_0  x_1_1  x_1_2  x_1_3  x_1_4  x_1_5  x_1_6  x_1_7  x_1_8  x_1_9  x_1_10 
 x_2_0  x_2_1  x_2_2  x_2_3  x_2_4  x_2_5  x_2_6  x_2_7  x_2_8  x_2_9  x_2_10 
 x_3_0  x_3_1  x_3_2  x_3_3  x_3_4  x_3_5  x_3_6  x_3_7  x_3_8  x_3_9  x_3_10 
 x_4_0  x_4_1  x_4_2  x_4_3  x_4_4  x_4_5  x_4_6  x_4_7  x_4_8  x_4_9  x_4_10 
 x_5_0  x_5_1  x_5_2  x_5_3  x_5_4  x_5_5  x_5_6  x_5_7  x_5_8  x_5_9  x_5_10 
 x_6_0  x_6_1  x_6_2  x_6_3  x_6_4  x_6_5  x_6_6  x_6_7  x_6_8  x_6_9  x_6_10 
 x_7_0  x_7_1  x_7_2  x_7_3  x_7_4  x_7_5  x_7_6  x_7_7  x_7_8  x_7_9  x_7_10 
 x_8_0  x_8_1  x_8_2  x_8_3  x_8_4  x_8_5  x_8_6  x_8_7  x_8_8  x_8_9  x_8_10 
 x_9_0  x_9_1  x_9_2  x_9_3  x_9_4  x_9_5  x_9_6  x_9_7  x_9_8  x_9_9  x_9_10 
End
